;  depth   = 3
;  nconst  = 5
;  assertions = 5
;  timeout = 2500
;  time    = {'smt_solvers/QF_S/z3str3fed/': 0.07213950157165527, 'smt_solvers/QF_S/z3seq/': 0.08780550956726074, 'smt_solvers/QF_S/z3str3/': 0.08651018142700195, 'smt_solvers/QF_S/cvc4/': 0.07012701034545898}
;  score   = -0.017678499221801758
;  stdout  = {'smt_solvers/QF_S/z3str3fed/': 'unsat', 'smt_solvers/QF_S/z3seq/': 'unsat', 'smt_solvers/QF_S/z3str3/': 'unsat', 'smt_solvers/QF_S/cvc4/': 'unsat'}
(set-logic ALL)(declare-fun var0 () String)(declare-fun var1 () String)(declare-fun var2 () String)(declare-fun var3 () String)(declare-fun var4 () String)(declare-fun var5 () Int)(declare-fun var6 () Int)(declare-fun var7 () Int)(declare-fun var8 () Int)(declare-fun var9 () Int)(declare-fun var10 () Bool)(declare-fun var11 () Bool)(declare-fun var12 () Bool)(declare-fun var13 () Bool)(declare-fun var14 () Bool)(assert (< (str.indexof (str.replace var0 "m?I\\I<b*$%" var4) (str.substr var0 6 var8) (str.indexof var3 var2 var8)) (str.indexof (str.replace "_=6cES2<c-" var0 var3) (str.substr var0 var9 var7) (str.to_int var2))))(assert (not var12))(assert (<= (str.indexof (str.at var0 var5) (str.at var3 2) (str.len ";j.z3L9bze")) (str.indexof (str.substr var1 var7 var6) (str.substr var4 var9 var7) (str.indexof var3 var4 var6))))(assert (> (str.indexof var0 "K)q:'iGAXp" 6) (str.indexof (str.replace var2 var0 var0) (str.substr var3 (str.indexof var0 var4 var7) (str.len (str.replace var1 var1 var3))) (str.indexof var3 var2 var7))))(assert (< (str.len var2) (str.len var2)))(check-sat)